c b=4,c=849
p cnf 18 90
4 -8 0
1 2 4 -12 0
1 2 4 -14 0
1 3 4 -16 0
1 2 4 -17 0
-4 8 0
1 2 -4 12 0
1 2 -4 14 0
2 3 -4 16 0
2 3 -4 17 0
3 -7 0
1 3 -11 0
1 2 3 -13 0
1 2 3 -15 0
2 3 -18 0
1 2 -3 4 16 0
4 -18 0
1 2 -3 -4 -16 0
-3 -4 18 0
-3 7 0
1 -3 11 0
1 2 -3 13 0
1 2 -3 15 0
1 2 -3 -17 0
2 -6 0
2 -10 0
1 -2 4 12 0
1 3 4 -13 0
1 -2 4 14 0
1 -2 3 4 15 0
1 -2 -4 -12 0
1 -2 3 -4 13 0
-2 3 -4 -14 0
1 3 -4 -15 0
-2 -4 18 0
1 -2 3 -16 0
-2 3 -17 0
1 -3 4 13 0
1 -2 -3 4 -15 0
1 -2 4 -16 0
-2 -3 4 17 0
1 -2 -3 -4 -13 0
1 -3 -4 15 0
1 -2 -3 -4 16 0
1 -2 -4 -17 0
1 -2 -3 14 0
-2 6 0
-2 10 0
1 -5 0
1 -9 0
2 3 4 -12 0
-1 2 3 4 14 0
-1 2 4 -15 0
-1 2 4 -16 0
3 4 -17 0
2 3 -4 12 0
-1 3 -4 -14 0
-1 3 -4 15 0
-1 2 -4 16 0
-1 3 11 0
-1 2 3 13 0
-1 2 -3 4 12 0
-1 2 -3 4 -13 0
2 -3 4 -14 0
-1 -3 4 17 0
-1 2 -3 -4 -12 0
-1 2 -4 13 0
2 -3 -4 14 0
2 -3 -4 -17 0
-1 -3 -11 0
-1 2 -3 -15 0
-2 3 4 12 0
-1 -2 4 13 0
-1 3 4 -15 0
-1 -2 3 4 16 0
-2 3 -4 -12 0
-1 -2 3 -4 -13 0
-1 -2 -4 -16 0
-1 -2 3 -14 0
-1 -2 -3 4 -12 0
-2 -3 4 14 0
-1 -2 -3 4 15 0
-1 -2 -3 -4 12 0
-1 -2 -4 -14 0
-1 -3 -4 -15 0
-1 -2 -3 13 0
-1 -2 -3 -16 0
-1 -2 -3 17 0
-1 5 0
-1 9 0
